qbf_easy_train/easy_4703_UNSAT.qdimacs
p cnf 33 91
a 16 2 28 0
e 1 3 4 5 6 7 8 9 10 11 12 13 14 15 17 18 19 20 21 22 23 24 25 26 27 29 30 31 32 33 0
-2 1 0
-2 -1 0
-4 -2 0
-4 -3 0
2 3 4 0
5 4 0
5 1 0
-4 -1 -5 0
7 -1 -8 0
-7 1 -8 0
7 1 8 0
-7 -1 8 0
9 8 0
9 -7 0
-8 7 -9 0
10 6 0
10 -9 0
-6 9 -10 0
-12 7 0
-12 11 0
-7 -11 12 0
13 -12 0
13 -9 0
12 9 -13 0
-14 -7 0
-14 13 0
7 -13 14 0
15 10 0
15 14 0
-10 -14 -15 0
16 5 0
16 15 0
-5 -15 -16 0
9 -1 -17 0
-9 1 -17 0
9 1 17 0
-9 -1 17 0
19 -18 0
19 12 0
18 -12 -19 0
3 -18 -20 0
-3 18 -20 0
3 18 20 0
-3 -18 20 0
-20 21 -22 0
20 -21 -22 0
-20 -21 22 0
20 21 22 0
-23 19 0
-23 22 0
-19 -22 23 0
24 -17 0
24 -23 0
17 23 -24 0
7 -1 -25 0
-7 1 -25 0
7 1 25 0
-7 -1 25 0
-26 11 0
-26 -6 0
-11 6 26 0
25 -26 -27 0
-25 26 -27 0
25 26 27 0
-25 -26 27 0
-29 -3 0
-29 28 0
3 -28 29 0
-30 -29 0
-30 -7 0
29 7 30 0
-27 30 -31 0
27 -30 -31 0
-27 -30 31 0
27 30 31 0
24 -31 -32 0
-24 31 -32 0
24 31 32 0
-24 -31 32 0
33 16 0
33 32 0
-16 -32 -33 0
-14 -6 -27 -33 2 8 0
33 15 -2 0
-15 33 30 23 0
28 -14 -29 8 0
13 -32 -4 22 2 0
5 -26 4 19 -25 17 0
11 26 6 0
-19 23 17 -3 -6 0
33 0
