sat_easy_train/easy_4703_UNSAT.dimacs
p cnf 138 466
-2 -1 -3 0
2 1 -3 0
-2 1 3 0
2 -1 3 0
4 1 0
4 3 0
-1 -3 -4 0
7 -5 0
7 -6 0
5 6 -7 0
5 -8 -9 0
-5 8 -9 0
5 8 9 0
-5 -8 9 0
-11 9 0
-11 -10 0
-9 10 11 0
12 -7 0
12 11 0
7 -11 -12 0
-13 -3 0
-13 -5 0
3 5 13 0
14 12 0
14 13 0
-12 -13 -14 0
4 -14 -15 0
-4 14 -15 0
4 14 15 0
-4 -14 15 0
-10 6 -16 0
10 -6 -16 0
-10 -6 16 0
10 6 16 0
18 13 -19 0
-18 -13 -19 0
18 -13 19 0
-18 13 19 0
20 -17 0
20 -19 0
17 19 -20 0
21 -20 0
21 6 0
20 -6 -21 0
-22 16 0
-22 21 0
-16 -21 22 0
25 -23 0
25 24 0
23 -24 -25 0
-25 -6 -26 0
25 6 -26 0
-25 6 26 0
25 -6 26 0
27 -26 0
27 -6 0
26 6 -27 0
3 -27 -28 0
-3 27 -28 0
3 27 28 0
-3 -27 28 0
-29 -8 0
-29 28 0
8 -28 29 0
-31 30 0
-31 -6 0
-30 6 31 0
-32 -29 0
-32 31 0
29 -31 32 0
32 -16 -33 0
-32 16 -33 0
32 16 33 0
-32 -16 33 0
27 34 0
-27 34 0
35 -33 0
35 34 0
33 -34 -35 0
-36 -22 0
-36 35 0
22 -35 36 0
-37 15 0
-37 36 0
-15 -36 37 0
-30 1 -38 0
30 -1 -38 0
-30 -1 38 0
30 1 38 0
-40 26 0
-40 -39 0
-26 39 40 0
41 38 0
41 40 0
-38 -40 -41 0
43 -42 0
43 -10 0
42 10 -43 0
-44 16 0
-44 -43 0
-16 43 44 0
-45 -40 0
-45 23 0
40 -23 45 0
-46 -39 0
-46 -42 0
39 42 46 0
-47 46 0
-47 -24 0
-46 24 47 0
48 45 0
48 47 0
-45 -47 -48 0
-49 -44 0
-49 48 0
44 -48 49 0
-50 -41 0
-50 -49 0
41 49 50 0
-24 27 -51 0
24 -27 -51 0
-24 -27 51 0
24 27 51 0
51 -34 -52 0
-51 34 -52 0
51 34 52 0
-51 -34 52 0
-53 -52 0
-53 -18 0
52 18 53 0
-27 -53 -54 0
27 53 -54 0
-27 53 54 0
27 -53 54 0
-55 -30 0
-55 43 0
30 -43 55 0
56 54 0
56 -55 0
-54 55 -56 0
-58 -30 0
-58 57 0
30 -57 58 0
59 56 0
59 -58 0
-56 58 -59 0
-60 17 0
-60 17 0
-17 60 0
-61 -60 0
-61 25 0
60 -25 61 0
62 59 0
62 -61 0
-59 61 -62 0
-50 62 -63 0
50 -62 -63 0
-50 -62 63 0
50 62 63 0
-64 9 0
-64 18 0
-9 -18 64 0
-66 -65 0
-66 33 0
65 -33 66 0
67 64 0
67 -66 0
-64 66 -67 0
-68 -39 0
-68 -18 0
39 18 68 0
-69 26 0
-69 -2 0
-26 2 69 0
-68 -69 -70 0
68 69 -70 0
-68 69 70 0
68 -69 70 0
-71 -67 0
-71 70 0
67 -70 71 0
-72 -63 0
-72 71 0
63 -71 72 0
74 26 0
74 73 0
-26 -73 -74 0
75 -74 0
75 17 0
74 -17 -75 0
64 -69 -76 0
-64 69 -76 0
64 69 76 0
-64 -69 76 0
-77 -1 0
-77 -76 0
1 76 77 0
78 75 0
78 -77 0
-75 77 -78 0
-79 -5 0
-79 39 0
5 -39 79 0
28 -79 -80 0
-28 79 -80 0
28 79 80 0
-28 -79 80 0
-81 80 0
-81 17 0
-80 -17 81 0
78 -81 -82 0
-78 81 -82 0
78 81 82 0
-78 -81 82 0
-83 7 0
-83 75 0
-7 -75 83 0
-84 -82 0
-84 83 0
82 -83 84 0
85 -72 0
85 -84 0
72 84 -85 0
-37 -85 -86 0
37 85 -86 0
-37 85 86 0
37 -85 86 0
87 -12 0
87 19 0
12 -19 -87 0
-86 -87 -88 0
86 87 -88 0
-86 87 88 0
86 -87 88 0
-89 -13 0
-89 19 0
13 -19 89 0
-90 16 0
-90 -89 0
-16 89 90 0
90 -76 -91 0
-90 76 -91 0
90 76 91 0
-90 -76 91 0
92 -26 0
92 -2 0
26 2 -92 0
93 -92 0
93 45 0
92 -45 -93 0
-94 91 0
-94 93 0
-91 -93 94 0
95 -21 0
95 -20 0
21 20 -95 0
-96 -6 0
-96 -25 0
6 25 96 0
-97 -19 0
-97 -11 0
19 11 97 0
-98 -96 0
-98 97 0
96 -97 98 0
99 95 0
99 -98 0
-95 98 -99 0
100 -94 0
100 99 0
94 -99 -100 0
-23 -65 -101 0
23 65 -101 0
-23 65 101 0
23 -65 101 0
102 32 0
102 101 0
-32 -101 -102 0
100 -102 -103 0
-100 102 -103 0
100 102 103 0
-100 -102 103 0
-88 103 -104 0
88 -103 -104 0
-88 -103 104 0
88 103 104 0
16 1 -105 0
-16 -1 -105 0
16 -1 105 0
-16 1 105 0
-7 105 -106 0
7 -105 -106 0
-7 -105 106 0
7 105 106 0
-107 18 0
-107 -66 0
-18 66 107 0
-108 -11 0
-108 -51 0
11 51 108 0
107 108 -109 0
-107 -108 -109 0
107 -108 109 0
-107 108 109 0
-110 106 0
-110 109 0
-106 -109 110 0
-111 21 0
-111 30 0
-21 -30 111 0
111 -76 -112 0
-111 76 -112 0
111 76 112 0
-111 -76 112 0
113 -7 0
113 -112 0
7 112 -113 0
-114 32 0
-114 28 0
-32 -28 114 0
-21 114 -115 0
21 -114 -115 0
-21 -114 115 0
21 114 115 0
116 111 0
116 -7 0
-111 7 -116 0
117 115 0
117 116 0
-115 -116 -117 0
7 30 -118 0
-7 -30 -118 0
7 -30 118 0
-7 30 118 0
-119 118 0
-119 -74 0
-118 74 119 0
66 -80 -120 0
-66 80 -120 0
66 80 120 0
-66 -80 120 0
-3 -120 -121 0
3 120 -121 0
-3 120 121 0
3 -120 121 0
122 -25 0
122 -3 0
25 3 -122 0
-123 -51 0
-123 -64 0
51 64 123 0
-111 123 -124 0
111 -123 -124 0
-111 -123 124 0
111 123 124 0
-97 -124 -125 0
97 124 -125 0
-97 124 125 0
97 -124 125 0
126 122 0
126 -125 0
-122 125 -126 0
121 126 -127 0
-121 -126 -127 0
121 -126 127 0
-121 126 127 0
-119 127 -128 0
119 -127 -128 0
-119 -127 128 0
119 127 128 0
69 -47 -129 0
-69 47 -129 0
69 47 129 0
-69 -47 129 0
73 -74 -130 0
-73 74 -130 0
73 74 130 0
-73 -74 130 0
129 130 -131 0
-129 -130 -131 0
129 -130 131 0
-129 130 131 0
-128 131 -132 0
128 -131 -132 0
-128 -131 132 0
128 131 132 0
-133 -117 0
-133 132 0
117 -132 133 0
134 -12 0
134 -43 0
12 43 -134 0
-135 -133 0
-135 134 0
133 -134 135 0
136 -113 0
136 135 0
113 -135 -136 0
137 -110 0
137 -136 0
110 136 -137 0
-138 104 0
-138 137 0
-104 -137 138 0
-36 -129 -27 0
15 132 -75 59 -102 72 0
23 21 42 -74 0
-123 -26 107 -62 99 0
-72 -46 -122 -1 -27 -47 0
-137 76 -52 26 -42 0
-106 -17 -95 3 115 0
-63 -47 1 0
-4 -6 -120 0
99 -32 39 -102 0
-58 28 110 0
-3 42 0
-120 -125 21 72 0
-83 49 -76 -43 -45 -114 0
-117 13 -15 -31 -116 0
-69 -138 7 101 14 0
111 16 1 0
4 58 -28 -29 77 0
129 -110 33 0
36 88 -14 -4 131 0
89 -103 0
-138 31 0
38 13 -47 0
11 44 -9 94 16 89 0
-82 -36 -54 0
-66 122 0
-14 118 -11 -83 0
-133 -3 61 -9 0
-82 -42 -59 6 0
-41 -132 69 0
-12 29 -86 32 -107 0
-43 84 56 -66 0
85 127 0
12 36 71 37 110 0
-19 111 -104 -18 0
-106 -84 46 -133 15 0
-95 -80 -92 1 26 127 0
-119 -69 0
-121 -122 0
-52 36 0
117 57 133 123 0
-113 -130 5 0
133 70 120 58 0
73 58 -39 -107 0
-103 60 -7 54 0
-105 47 127 -32 50 0
64 -86 72 -132 0
52 -30 -133 0
-99 56 -89 123 -83 0
-45 103 37 -110 -134 0
-37 138 0
-90 -109 28 20 -118 0
-82 -70 0
91 22 0
-84 47 -64 83 -101 0
59 -63 -40 -39 -45 0
-40 17 -71 0
-84 104 1 -44 0
89 50 -12 0
27 -123 101 129 0
52 101 0
138 0
